NAME : C104
TYPE : CVRPTW
DIMENSION : 26
VEHICLES : 3
CAPACITY : 200
SERVICE_TIME : 90
SCALE : 10
EDGE_WEIGHT_TYPE : FLOOR_2D
NODE_COORD_SECTION
1 40 50
2 45 68
3 45 70
4 42 66
5 42 68
6 42 65
7 40 69
8 40 66
9 38 68
10 38 70
11 35 66
12 35 69
13 25 85
14 22 75
15 22 85
16 20 80
17 20 85
18 18 75
19 15 75
20 15 80
21 30 50
22 30 52
23 28 52
24 28 55
25 25 50
26 25 52
DEMAND_SECTION
1 0
2 10
3 30
4 10
5 10
6 10
7 20
8 20
9 20
10 10
11 10
12 10
13 20
14 30
15 10
16 40
17 40
18 20
19 20
20 10
21 10
22 20
23 20
24 10
25 10
26 40
TIME_WINDOW_SECTION
1 0 1236
2 0 1127
3 0 1125
4 0 1129
5 727 782
6 0 1130
7 0 1127
8 0 1130
9 255 324
10 534 605
11 0 1129
12 448 505
13 0 1107
14 30 92
15 0 1106
16 384 429
17 0 1105
18 0 1112
19 0 1110
20 0 1106
21 0 1136
22 0 1135
23 0 1133
24 732 777
25 0 1131
26 169 224
DEPOT_SECTION
1 
-1
EOF
